% demand
num_movements = 30;
loading_factor = [1100, 1350, 1900, 1950, 1250, 900, 1500, 1050, 1350, 1850, 1650, 1950, 1000, 850, 1500, 1850, 1350, 1350, 1650, 900, 950, 1250, 1900, 800, 2000, 1400, 950, 1550, 1250, 1900];
pickup_time = [0, 0, 0, 0, 0, 0, 0, 0, 2, 2, 2, 2, 2, 3, 4, 4, 4, 4, 4, 5, 7, 7, 7, 9, 9, 9, 9, 11, 11, 11];
delivery_time = [1, 1, 1, 1, 1, 1, 2, 1, 9, 4, 4, 7, 4, 4, 5, 9, 11, 11, 7, 11, 11, 11, 9, 11, 11, 11, 11, 12, 12, 12];

% transporter definition
total_capacity = 11000;
num_decks = 4;
capacity = [3000, 3000, 1000, 4000];

% ways out of decks
num_ways_out = 2;
paths_out = array3d(decks, ways_out, decks, [
% ways out of deck d1
2, 4, 0, 0, 3, 4, 0, 0, 

% ways out of deck d2
4, 0, 0, 0, 0, 0, 0, 0,	

% ways out of deck d3
4, 0, 0, 0, 0, 0, 0, 0,	

% ways out of deck d4
0, 0, 0, 0,	0, 0, 0, 0,	

]);

